param TOT_LAYERS := 3;  # Total Number of layers in the ANN
param N_NODES := 3 4 1;  # Number of nodes for each layer
param ANN_WEIGTHS :=
                     1   1 5 -7 -4 -9 10 -3 7 2 1 3 -7
                     2   6 -6 7 -9 ;
end;
